 ! --------------------------------------------------- CP Optimizer 22.1.1.0 --
 ! Maximization problem - 55 variables, 126 constraints
 ! TimeLimit            = 1800
 ! Workers              = 8
 ! LogVerbosity         = Terse
 ! Initial process time : 0.00s (0.00s extraction + 0.00s propagation)
 !  . Log search space  : 312.8 (before), 312.8 (after)
 !  . Memory usage      : 451.6 kB (before), 451.6 kB (after)
 ! Using parallel search with 8 workers.
 ! ----------------------------------------------------------------------------
 !          Best Branches  Non-fixed    W       Branch decision
                        0         55                 -
 + New bound is 13
 *             6       63  0.04s        3      (gap is 116.7%)
 *             7      132  0.04s        3      (gap is 85.71%)
 *             8      971  0.04s        3      (gap is 62.50%)
 *             9     1043  0.04s        3      (gap is 44.44%)
 *            10     1828  0.04s        3      (gap is 30.00%)
              10    11582         52    4            -
 + New bound is 10 (gap is 0.00%)
 ! ----------------------------------------------------------------------------
 ! Search completed, 5 solutions found.
 ! Best objective         : 10 (optimal - effective tol. is 0)
 ! Best bound             : 10
 ! ----------------------------------------------------------------------------
 ! Number of branches     : 93694
 ! Number of fails        : 43768
 ! Total memory usage     : 12.0 MB (12.0 MB CP Optimizer + 0.0 MB Concert)
 ! Time spent in solve    : 0.17s (0.17s engine + 0.00s extraction)
 ! Search speed (br. / s) : 585587.5
 ! ----------------------------------------------------------------------------
Value Cyclic-Antibandwidth = 10
Labels: [32, 52, 11, 50, 19, 33, 21, 36, 48, 7, 12, 24, 47, 9, 43, 30, 5, 42, 2, 18, 14, 3, 49, 26, 15, 31, 23, 20, 54, 38, 35, 44, 51, 39, 10, 17, 27, 41, 37, 25, 8, 53, 16, 22, 13, 34, 1, 40, 28, 6, 4, 45, 29, 46]
Solve time (s): 0.16
Memory usage (MB): 27.421875
